
MOSEK Version 8.0.0.51 (Build date: 2016-12-14 12:53:47)
Copyright (c) MOSEK ApS, Denmark. WWW: mosek.com
Platform: Linux/64-X86

MOSEK warning 710: #49 (nearly) zero elements are specified in sparse col '' (50) of matrix 'A'.
MOSEK warning 710: #48 (nearly) zero elements are specified in sparse col '' (51) of matrix 'A'.
MOSEK warning 710: #47 (nearly) zero elements are specified in sparse col '' (52) of matrix 'A'.
MOSEK warning 710: #46 (nearly) zero elements are specified in sparse col '' (53) of matrix 'A'.
MOSEK warning 710: #45 (nearly) zero elements are specified in sparse col '' (54) of matrix 'A'.
MOSEK warning 710: #44 (nearly) zero elements are specified in sparse col '' (55) of matrix 'A'.
MOSEK warning 710: #43 (nearly) zero elements are specified in sparse col '' (56) of matrix 'A'.
MOSEK warning 710: #42 (nearly) zero elements are specified in sparse col '' (57) of matrix 'A'.
MOSEK warning 710: #41 (nearly) zero elements are specified in sparse col '' (58) of matrix 'A'.
MOSEK warning 710: #40 (nearly) zero elements are specified in sparse col '' (59) of matrix 'A'.
Warning number 710 is disabled.
Problem
  Name                   :                 
  Objective sense        : min             
  Type                   : CONIC (conic optimization problem)
  Constraints            : 7673            
  Cones                  : 1               
  Scalar variables       : 5003            
  Matrix variables       : 0               
  Integer variables      : 2500            

Optimizer started.
Mixed integer optimizer started.
Threads used: 72
Presolve started.
Presolve terminated. Time = 1.57
Presolved problem: 4978 variables, 2672 constraints, 195177 non-zeros
Presolved problem: 0 general integer, 2476 binary, 2502 continuous
Clique table size: 286
BRANCHES RELAXS   ACT_NDS  DEPTH    BEST_INT_OBJ         BEST_RELAX_OBJ       REL_GAP(%)  TIME  
0        1        0        0        NA                   1.1112052410e+02     NA          3.2   
Cut generation started.
0        2        0        0        NA                   1.1112052410e+02     NA          18.3  
Cut generation terminated. Time = 5.06
15       18       14       3        NA                   1.1123595041e+02     NA          43.3  
45       41       30       3        NA                   1.1128706105e+02     NA          50.5  
65       57       42       3        NA                   1.1134998573e+02     NA          58.1  
90       78       57       3        NA                   1.1134998573e+02     NA          68.3  
123      103      70       3        NA                   1.1139752363e+02     NA          81.2  
161      135      92       3        NA                   1.1141360842e+02     NA          93.0  
207      177      126      3        NA                   1.1141360842e+02     NA          103.1 
249      218      154      3        NA                   1.1149224167e+02     NA          112.7 
337      306      232      10       NA                   1.1168864586e+02     NA          126.7 
553      491      376      12       NA                   1.1178130047e+02     NA          143.9 
913      783      584      17       NA                   1.1185240749e+02     NA          192.0 
1489     1213     800      21       NA                   1.1185240749e+02     NA          300.1 
2281     1726     884      27       NA                   1.1185240749e+02     NA          424.7 
3145     2343     968      33       NA                   1.1185240749e+02     NA          546.4 
4081     3014     1040     40       NA                   1.1185240749e+02     NA          686.6 
5089     3742     1170     47       NA                   1.1185240749e+02     NA          792.4 
6241     4640     1522     55       NA                   1.1185240749e+02     NA          943.7 
7753     5935     2248     18       1.1456184499e+03     1.1358216712e+02     90.09       1112.4
9780     7802     3549     34       1.1456184499e+03     1.2792251004e+02     88.83       1366.1
11796    9709     4957     27       1.1456184499e+03     1.2796002071e+02     88.83       1624.0
13805    11609    6346     57       1.1456184499e+03     1.2809917049e+02     88.82       1867.2
15818    13506    7677     72       1.1456184499e+03     1.2820454632e+02     88.81       2106.7
17717    15415    9012     49       1.1456184499e+03     1.2820454632e+02     88.81       2323.5
19684    17315    10387    67       1.1456184499e+03     1.2820454632e+02     88.81       2547.7
21632    19221    11801    81       1.1456184499e+03     1.2820454632e+02     88.81       2740.2
23616    21116    13119    96       1.1456184499e+03     1.2824401830e+02     88.81       2933.4
25601    23017    14394    118      1.1456184499e+03     1.2829812547e+02     88.80       3137.6
27654    24904    15541    142      1.1456184499e+03     1.2829812547e+02     88.80       3325.1
29664    26800    16805    118      1.1456184499e+03     1.2834875423e+02     88.80       3494.5
31588    28691    18253    78       1.1456184499e+03     1.2836270229e+02     88.80       3684.5
33458    30515    19675    32       1.1456184499e+03     1.2844516544e+02     88.79       3901.8
35303    32404    21084    83       1.1456184499e+03     1.2851493583e+02     88.78       4129.5
37108    34296    22435    58       1.1456184499e+03     1.2851493583e+02     88.78       4364.3
39040    36183    23711    57       1.1456184499e+03     1.2857398894e+02     88.78       4586.0
40910    38072    24997    106      1.1456184499e+03     1.2860094287e+02     88.77       4828.2
42814    39958    26341    120      1.1456184499e+03     1.2860094287e+02     88.77       5071.3
44741    41861    27696    214      1.1456184499e+03     1.2880749730e+02     88.76       5273.8
46630    43775    29011    203      1.1456184499e+03     1.2881060445e+02     88.76       5468.2
48483    45675    30338    225      1.1456184499e+03     1.2881060445e+02     88.76       5651.7
50427    47572    31718    208      1.1456184499e+03     1.2881060445e+02     88.76       5857.7
52345    49471    33104    135      1.1456184499e+03     1.2923910466e+02     88.72       6066.2
54184    51365    34573    115      1.1456184499e+03     1.2936507954e+02     88.71       6293.0
56089    53261    35858    72       1.1456184499e+03     1.2956138280e+02     88.69       6564.3
57950    55152    37327    94       1.1456184499e+03     1.2980588742e+02     88.67       6817.9
59851    57057    38696    101      1.1456184499e+03     1.2984192904e+02     88.67       7028.5

Objective of best integer solution : 1.145618449916e+03      
Best objective bound               : 1.298419290382e+02      
Construct solution objective       : Not employed
Construct solution # roundings     : 0
User objective cut value           : 0
Number of cuts generated           : 0
Number of branches                 : 59851
Number of relaxations solved       : 57057
Number of interior point iterations: 1010905
Number of simplex iterations       : 0
Time spend presolving the root     : 1.57
Time spend in the heuristic        : 0.00
Time spend in the sub optimizers   : 0.00
  Time spend optimizing the root   : 1.63
Mixed integer optimizer terminated. Time: 7199.98

Optimizer terminated. Time: 7201.63 

Integer solution solution summary
  Problem status  : PRIMAL_FEASIBLE
  Solution status : PRIMAL_FEASIBLE
  Primal.  obj: 1.1456184499e+03    nrm: 1e+03    Viol.  con: 5e-10    var: 0e+00    cones: 0e+00    itg: 0e+00  
Optimizer summary
  Optimizer                 -                        time: 7201.63 
    Interior-point          - iterations : 0         time: 0.00    
      Basis identification  -                        time: 0.00    
        Primal              - iterations : 0         time: 0.00    
        Dual                - iterations : 0         time: 0.00    
        Clean primal        - iterations : 0         time: 0.00    
        Clean dual          - iterations : 0         time: 0.00    
    Simplex                 -                        time: 0.00    
      Primal simplex        - iterations : 0         time: 0.00    
      Dual simplex          - iterations : 0         time: 0.00    
    Mixed integer           - relaxations: 57057     time: 7199.98 

Mosek error: MSK_RES_TRM_MAX_TIME (No dual information is available for the integer solution.)
